p cnf 729 81
-1 0
-10 0
-19 0
30 0
-37 0
-46 0
-55 0
-64 0
77 0
90 0
-91 0
-100 0
-109 0
-118 0
-127 0
-136 0
-145 0
-154 0
170 0
-172 0
-181 0
-190 0
-199 0
-208 0
220 0
227 0
-235 0
-244 0
-253 0
-262 0
-271 0
-280 0
-289 0
305 0
-307 0
-316 0
-325 0
-334 0
349 0
-352 0
-361 0
-370 0
-379 0
-388 0
-397 0
-406 0
416 0
426 0
439 0
-442 0
-451 0
-460 0
-469 0
-478 0
-487 0
-496 0
-505 0
-514 0
-523 0
-532 0
-541 0
556 0
561 0
-568 0
-577 0
-586 0
-595 0
-604 0
621 0
-622 0
-631 0
-640 0
649 0
-658 0
-667 0
679 0
692 0
-694 0
-703 0
-712 0
-721 0
